ATOMIC_SPECIES
C  6 12.0  C.pbe-n-rrkjus_psl.0.1.UPF 
H  6 1.00  H.pbe-rrkjus_psl.0.1.UPF 
ATOMIC_POSITIONS
C       0.0000  1.3970  0.0000
C       1.2098  0.6985  0.0000
C       1.2098 -0.6985  0.0000
C       0.0000 -1.3970  0.0000
C      -1.2098 -0.6985  0.0000
C      -1.2098  0.6985  0.0000
H       0.0000  2.4810  0.0000
H       2.1486  1.2405  0.0000
H       2.1486 -1.2405  0.0000
H       0.0000 -2.4810  0.0000
H      -2.1486 -1.2405  0.0000
H      -2.1486  1.2405  0.0000
